(set-logic DTLIA)
(synth-fun f0 ((x38 Int)) Int ((Ix Int) (Ic Int))
 ((Ix Int (Ic x38 (- Ix) (+ Ix Ix))) (Ic Int ((Constant Int)))))
(declare-var a Int)
(declare-var i Int)
(declare-var i138 Int)
(constraint (or (not (and (or (not (= i a)) (= i138 0)) (= i a))) (= i138 (f0 0))))
(check-synth)
